20	5
0	2	1	2
1	1	13
2	1	11
3	1	14
4	1	6
5	1	4
6	1	19
7	1	15
8	2	20	12
9	1	16
10	2	16	17
11	1	9
12	1	18
13	1	5
14	1	7
15	0
16	1	3
17	1	21
18	1	21
19	1	21
20	1	21
21	0
0	0	0	0	0	0	0
1	7	1	4	4	5	1
2	2	3	2	2	5	1
3	2	3	1	5	2	4
4	6	3	3	2	4	5
5	7	5	1	1	5	3
6	9	4	3	2	5	4
7	5	3	1	1	4	1
8	7	5	2	1	5	5
9	9	3	5	4	1	1
10	10	4	4	2	3	3
11	5	5	5	4	5	5
12	7	2	3	1	1	1
13	9	2	2	2	3	4
14	10	4	2	5	3	4
15	9	4	3	4	3	2
16	10	2	5	3	5	1
17	5	5	3	2	2	3
18	7	3	4	5	5	1
19	1	5	5	2	1	1
20	10	3	4	1	1	5
21	0	0	0	0	0	0
8	8	9	10	7
